5 45 2 55 
83 23 21 18 19 49 22 20 24 
82 52 57 99 53 90 
69 98 88 73 78 79 7 6 8 46 3 1 4 100 70 
65 59 75 97 10 13 17 60 
92 67 62 85 51 76 89 48 25 77 58 
64 84 56 91 80 
14 47 16 15 12 11 9 87 86 74 66 
95 63 33 31 29 27 30 28 26 34 50 32 93 
42 39 36 72 71 94 81 54 96 
61 44 41 38 40 35 37 43 68 
